100
128
64
2
49
41
44
51
6
35
57
12
26
46
62
50
40
9
10
15
20
1
63
23
30
31
25
12
22
20
35
39
28
14
10
58
29
11
27
11
27
15
21
10
54
37
30
36
15
19
11
22
33
33
32
24
20
11
10
28
22
2
35
11
4
12
10
28
12
13
27
32
15
3
20
1
27
2
34
19
14
19
38
43
19
39
32
19
14
4
12
17
3
19
64
58
64
36
51
63
41
61